# first column: time
# 2 column: 1th component of the gradients (StrainXX)
# 3 column: 2th component of the gradients (StrainYY)
# 4 column: 3th component of the gradients (StrainZZ)
# 5 column: 4th component of the gradients (StrainXY)
# 6 column: 5th component of the gradients (StrainXZ)
# 7 column: 6th component of the gradients (StrainYZ)
# 8 column: 7th component of the gradients (PorosityVariation)
# 9 column: 1th component of the thermodynamic forces (StressXX)
# 10 column: 2th component of the thermodynamic forces (StressYY)
# 11 column: 3th component of the thermodynamic forces (StressZZ)
# 12 column: 4th component of the thermodynamic forces (StressXY)
# 13 column: 5th component of the thermodynamic forces (StressXZ)
# 14 column: 6th component of the thermodynamic forces (StressYZ)
# 15 column: 7th component of the thermodynamic forces (Pressure)
# 16 column: first component of internal variable 'ElasticStrain' (ElasticStrainXX)
# 17 column: second component of internal variable 'ElasticStrain' (ElasticStrainYY)
# 18 column: third component of internal variable 'ElasticStrain' (ElasticStrainZZ)
# 19 column: fourth component of internal variable 'ElasticStrain' (ElasticStrainXY)
# 20 column: fifth component of internal variable 'ElasticStrain' (ElasticStrainXZ)
# 21 column: sixth component of internal variable 'ElasticStrain' (ElasticStrainYZ)
# 22 column: ElasticPorosity
# 23 column: CumPlastStrain
# 24 column: stored energy
# 25 column: disspated energy
0 0 0 0 0 0 0 0 0 0 0 0 0 0 0 0 0 0 0 0 0 0 0 0 0
0.02 -0.0002 0.0001 0.0001 0 0 0 2e-05 -60000 1.4551915228367e-11 1.4551915228367e-11 0 0 0 20000 -0.0002 0.0001 0.0001 0 0 0 2e-05 0 0 0
0.04 -0.0004 0.0002 0.0002 0 0 0 4e-05 -120000 5.8207660913467e-11 5.8207660913467e-11 0 0 0 40000 -0.0004 0.0002 0.0002 0 0 0 4e-05 0 0 0
0.06 -0.0006 0.0003 0.0003 0 0 0 6e-05 -180000 1.0913936421275e-10 6.5483618527651e-11 0 0 0 60000 -0.0006 0.0003 0.0003 0 0 0 6e-05 0 0 0
0.08 -0.0008 0.0004 0.0004 0 0 0 8e-05 -240000 -5.8207660913467e-11 0 0 0 0 80000 -0.0008 0.0004 0.0004 0 0 0 8e-05 0 0 0
0.1 -0.001 0.0005 0.0005 0 0 0 0.0001 -300000 8.7311491370201e-11 1.4551915228367e-11 0 0 0 100000 -0.001 0.0005 0.0005 0 0 0 0.0001 0 0 0
0.12 -0.0012 0.0006 0.0006 0 0 0 0.00012 -360000 -2.0372681319714e-10 -5.8207660913467e-11 0 0 0 120000 -0.0012 0.0006 0.0006 0 0 0 0.00012 0 0 0
0.14 -0.0014 0.0007 0.0007 0 0 0 0.00014 -420000 -2.9103830456734e-11 -1.4551915228367e-10 0 0 0 140000 -0.0014 0.0007 0.0007 0 0 0 0.00014 0 0 0
0.16 -0.0016 0.0008 0.0008 0 0 0 0.00016 -480000 -2.9103830456734e-11 -2.9103830456734e-11 0 0 0 160000 -0.0016 0.0008 0.0008 0 0 0 0.00016 0 0 0
0.18 -0.0018 0.0009 0.0009 0 0 0 0.00018 -540000 0 -2.9103830456734e-11 0 0 0 180000 -0.0018 0.0009 0.0009 0 0 0 0.00018 0 0 0
0.2 -0.002 0.001 0.001 0 0 0 0.0002 -600000 -5.8207660913467e-11 2.9103830456734e-11 0 0 0 200000 -0.002 0.001 0.001 0 0 0 0.0002 0 0 0
0.22 -0.0022 0.0011 0.0011 0 0 0 0.00022 -660000 5.8207660913467e-11 1.4551915228367e-10 0 0 0 220000 -0.0022 0.0011 0.0011 0 0 0 0.00022 0 0 0
0.24 -0.0024 0.0012 0.0012 0 0 0 0.00024 -720000 2.619344741106e-10 3.2014213502407e-10 0 0 0 240000 -0.0024 0.0012 0.0012 0 0 0 0.00024 0 0 0
0.26 -0.0026 0.0013 0.0013 0 0 0 0.00026 -780000 -1.1641532182693e-10 -3.492459654808e-10 0 0 0 260000 -0.0026 0.0013 0.0013 0 0 0 0.00026 0 0 0
0.28 -0.0028 0.0014 0.0014 0 0 0 0.00028 -840000 -5.8207660913467e-11 5.8207660913467e-11 0 0 0 280000 -0.0028 0.0014 0.0014 0 0 0 0.00028 0 0 0
0.3 -0.003 0.0015 0.0015 0 0 0 0.0003 -900000 -5.8207660913467e-11 -5.8207660913467e-11 0 0 0 300000 -0.003 0.0015 0.0015 0 0 0 0.0003 0 0 0
0.32 -0.0032 0.0016 0.0016 0 0 0 0.00032 -960000 0 5.8207660913467e-11 0 0 0 320000 -0.0032 0.0016 0.0016 0 0 0 0.00032 0 0 0
0.34 -0.0034 0.0017 0.0017 0 0 0 0.00034 -1020000 -1.1641532182693e-10 -2.3283064365387e-10 0 0 0 340000 -0.0034 0.0017 0.0017 0 0 0 0.00034 0 0 0
0.36 -0.0036 0.0018 0.0018 0 0 0 0.00036 -1080000 1.746229827404e-10 2.3283064365387e-10 0 0 0 360000 -0.0036 0.0018 0.0018 0 0 0 0.00036 0 0 0
0.38 -0.0038 0.0019 0.0019 0 0 0 0.00038 -1140000 1.1641532182693e-10 -2.3283064365387e-10 0 0 0 380000 -0.0038 0.0019 0.0019 0 0 0 0.00038 0 0 0
0.4 -0.004 0.002 0.002 0 0 0 0.0004 -1200000 4.6566128730774e-10 8.1490725278854e-10 0 0 0 400000 -0.004 0.002 0.002 0 0 0 0.0004 0 0 0
0.42 -0.0042 0.0021 0.0021 0 0 0 0.00042 -1260000 1.1641532182693e-10 0 0 0 0 420000 -0.0042 0.0021 0.0021 0 0 0 0.00042 0 0 0
0.44 -0.0044 0.0022 0.0022 0 0 0 0.00044 -1320000 -2.3283064365387e-10 -5.8207660913467e-11 0 0 0 440000 -0.0044 0.0022 0.0022 0 0 0 0.00044 0 0 0
0.46 -0.0046 0.0023 0.0023 0 0 0 0.00046 -1380000 -4.0745362639427e-10 -5.8207660913467e-10 0 0 0 460000 -0.0046 0.0023 0.0023 0 0 0 0.00046 0 0 0
0.48 -0.0048 0.0024 0.0024 0 0 0 0.00048 -1440000 4.6566128730774e-10 8.1490725278854e-10 0 0 0 480000 -0.0048 0.0024 0.0024 0 0 0 0.00048 0 0 0
0.5 -0.005 0.0025 0.0025 0 0 0 0.0005 -1500000 -1.746229827404e-10 -5.2386894822121e-10 0 0 0 500000 -0.005 0.0025 0.0025 0 0 0 0.0005 0 0 0
0.52 -0.0052 0.0026666666666667 0.0026666666666667 0 0 0 0.00047555555555556 -1520000 1.1641532182693e-10 4.6566128730774e-10 0 0 0 520000 -0.0050222222222222 0.0025777777777778 0.0025777777777778 0 0 0 0.00065333333333334 0.00017777777777778 0 0
0.54 -0.0054 0.0028333333333333 0.0028333333333333 0 0 0 0.00045111111111111 -1540000 1.1641532182693e-10 4.6566128730774e-10 0 0 0 540000 -0.0050444444444444 0.0026555555555556 0.0026555555555556 0 0 0 0.00080666666666667 0.00035555555555555 0 0
0.56 -0.0056 0.003 0.003 0 0 0 0.00042666666666666 -1560000 5.8207660913467e-10 1.1641532182693e-10 0 0 0 560000 -0.0050666666666667 0.0027333333333333 0.0027333333333333 0 0 0 0.00096 0.00053333333333333 0 0
0.58 -0.0058 0.0031666666666667 0.0031666666666667 0 0 0 0.00040222222222222 -1580000 0 0 0 0 0 580000 -0.0050888888888889 0.0028111111111111 0.0028111111111111 0 0 0 0.0011133333333333 0.0007111111111111 0 0
0.6 -0.006 0.0033333333333333 0.0033333333333333 0 0 0 0.00037777777777777 -1600000 -4.6566128730774e-10 -2.3283064365387e-10 0 0 0 600000 -0.0051111111111111 0.0028888888888889 0.0028888888888889 0 0 0 0.0012666666666667 0.00088888888888888 0 0
0.62 -0.0062 0.0035 0.0035 0 0 0 0.00035333333333333 -1620000 -4.6566128730774e-10 4.6566128730774e-10 0 0 0 620000 -0.0051333333333333 0.0029666666666667 0.0029666666666667 0 0 0 0.00142 0.0010666666666667 0 0
0.64 -0.0064 0.0036666666666667 0.0036666666666667 0 0 0 0.00032888888888888 -1640000 4.6566128730774e-10 2.3283064365387e-10 0 0 0 640000 -0.0051555555555556 0.0030444444444444 0.0030444444444444 0 0 0 0.0015733333333333 0.0012444444444444 0 0
0.66 -0.0066 0.0038333333333333 0.0038333333333333 0 0 0 0.00030444444444444 -1660000 -4.6566128730774e-10 -2.3283064365387e-10 0 0 0 660000 -0.0051777777777778 0.0031222222222222 0.0031222222222222 0 0 0 0.0017266666666667 0.0014222222222222 0 0
0.68 -0.0068 0.004 0.004 0 0 0 0.00028 -1680000 0 2.3283064365387e-10 0 0 0 680000 -0.0052 0.0032 0.0032 0 0 0 0.00188 0.0016 0 0
0.7 -0.007 0.0041666666666667 0.0041666666666667 0 0 0 0.00025555555555555 -1700000 -4.6566128730774e-10 -4.6566128730774e-10 0 0 0 700000 -0.0052222222222222 0.0032777777777778 0.0032777777777778 0 0 0 0.0020333333333333 0.0017777777777778 0 0
0.72 -0.0072 0.0043333333333333 0.0043333333333333 0 0 0 0.0002311111111111 -1720000 0 0 0 0 0 720000 -0.0052444444444445 0.0033555555555556 0.0033555555555556 0 0 0 0.0021866666666667 0.0019555555555555 0 0
0.74 -0.0074 0.0045 0.0045 0 0 0 0.00020666666666666 -1740000 4.6566128730774e-10 0 0 0 0 740000 -0.0052666666666667 0.0034333333333333 0.0034333333333333 0 0 0 0.00234 0.0021333333333333 0 0
0.76 -0.0076 0.0046666666666667 0.0046666666666667 0 0 0 0.00018222222222221 -1760000 -9.3132257461548e-10 -4.6566128730774e-10 0 0 0 760000 -0.0052888888888889 0.0035111111111111 0.0035111111111111 0 0 0 0.0024933333333333 0.0023111111111111 0 0
0.78 -0.0078 0.0048333333333333 0.0048333333333333 0 0 0 0.00015777777777777 -1780000 0 4.6566128730774e-10 0 0 0 780000 -0.0053111111111111 0.0035888888888889 0.0035888888888889 0 0 0 0.0026466666666667 0.0024888888888889 0 0
0.8 -0.008 0.005 0.005 0 0 0 0.00013333333333332 -1800000 -4.6566128730774e-10 -4.6566128730774e-10 0 0 0 800000 -0.0053333333333333 0.0036666666666667 0.0036666666666667 0 0 0 0.0028 0.0026666666666667 0 0
0.82 -0.0082 0.0051666666666667 0.0051666666666667 0 0 0 0.00010888888888888 -1820000 0 -4.6566128730774e-10 0 0 0 820000 -0.0053555555555556 0.0037444444444444 0.0037444444444444 0 0 0 0.0029533333333333 0.0028444444444444 0 0
0.84 -0.0084 0.0053333333333333 0.0053333333333333 0 0 0 8.4444444444434e-05 -1840000 0 0 0 0 0 840000 -0.0053777777777778 0.0038222222222222 0.0038222222222222 0 0 0 0.0031066666666667 0.0030222222222222 0 0
0.86 -0.0086 0.0055 0.0055 0 0 0 5.9999999999988e-05 -1860000 0 0 0 0 0 860000 -0.0054 0.0039 0.0039 0 0 0 0.00326 0.0032 0 0
0.88 -0.0088 0.0056666666666667 0.0056666666666667 0 0 0 3.5555555555542e-05 -1880000 4.6566128730774e-10 4.6566128730774e-10 0 0 0 880000 -0.0054222222222222 0.0039777777777778 0.0039777777777778 0 0 0 0.0034133333333333 0.0033777777777778 0 0
0.9 -0.009 0.0058333333333333 0.0058333333333333 0 0 0 1.1111111111095e-05 -1900000 -4.6566128730774e-10 -4.6566128730774e-10 0 0 0 900000 -0.0054444444444444 0.0040555555555556 0.0040555555555556 0 0 0 0.0035666666666667 0.0035555555555556 0 0
0.92 -0.0092 0.006 0.006 0 0 0 -1.3333333333348e-05 -1920000 -1.3969838619232e-09 -1.3969838619232e-09 0 0 0 920000 -0.0054666666666667 0.0041333333333333 0.0041333333333333 0 0 0 0.00372 0.0037333333333333 0 0
0.94 -0.0094 0.0061666666666667 0.0061666666666667 0 0 0 -3.777777777779e-05 -1940000 9.3132257461548e-10 4.6566128730774e-10 0 0 0 940000 -0.0054888888888889 0.0042111111111111 0.0042111111111111 0 0 0 0.0038733333333333 0.0039111111111111 0 0
0.96 -0.0096 0.0063333333333333 0.0063333333333333 0 0 0 -6.2222222222231e-05 -1960000 4.6566128730774e-10 4.6566128730774e-10 0 0 0 960000 -0.0055111111111111 0.0042888888888889 0.0042888888888889 0 0 0 0.0040266666666667 0.0040888888888889 0 0
0.98 -0.0098 0.0065 0.0065 0 0 0 -8.6666666666676e-05 -1980000 -4.6566128730774e-10 0 0 0 0 980000 -0.0055333333333333 0.0043666666666667 0.0043666666666667 0 0 0 0.00418 0.0042666666666667 0 0
1 -0.01 0.0066666666666667 0.0066666666666667 0 0 0 -0.00011111111111112 -2000000 9.3132257461548e-10 0 0 0 0 1000000 -0.0055555555555556 0.0044444444444444 0.0044444444444444 0 0 0 0.0043333333333333 0.0044444444444444 0 0
1.02 -0.0108 0.0070666666666667 0.0070666666666667 0 0 0 -0.00091111111111112 -2000000 -1.862645149231e-09 -1.862645149231e-09 0 0 0 1000000 -0.0055555555555556 0.0044444444444444 0.0044444444444444 0 0 0 0.0043333333333333 0.0052444444444444 0 0
1.04 -0.0116 0.0074666666666667 0.0074666666666667 0 0 0 -0.0017111111111111 -2000000 0 0 0 0 0 1000000 -0.0055555555555556 0.0044444444444444 0.0044444444444444 0 0 0 0.0043333333333333 0.0060444444444444 0 0
1.06 -0.0124 0.0078666666666667 0.0078666666666667 0 0 0 -0.0025111111111111 -2000000 9.3132257461548e-10 9.3132257461548e-10 0 0 0 1000000 -0.0055555555555556 0.0044444444444444 0.0044444444444444 0 0 0 0.0043333333333333 0.0068444444444444 0 0
1.08 -0.0132 0.0082666666666667 0.0082666666666667 0 0 0 -0.0033111111111111 -2000000 0 0 0 0 0 1000000 -0.0055555555555556 0.0044444444444444 0.0044444444444444 0 0 0 0.0043333333333333 0.0076444444444444 0 0
1.1 -0.014 0.0086666666666667 0.0086666666666667 0 0 0 -0.0041111111111111 -2000000 9.3132257461548e-10 9.3132257461548e-10 0 0 0 1000000 -0.0055555555555556 0.0044444444444444 0.0044444444444444 0 0 0 0.0043333333333333 0.0084444444444444 0 0
1.12 -0.0148 0.0090666666666667 0.0090666666666667 0 0 0 -0.0049111111111111 -2000000 0 0 0 0 0 1000000 -0.0055555555555556 0.0044444444444444 0.0044444444444444 0 0 0 0.0043333333333333 0.0092444444444444 0 0
1.14 -0.0156 0.0094666666666667 0.0094666666666667 0 0 0 -0.0057111111111111 -2000000 0 0 0 0 0 1000000 -0.0055555555555556 0.0044444444444444 0.0044444444444444 0 0 0 0.0043333333333333 0.010044444444444 0 0
1.16 -0.0164 0.0098666666666667 0.0098666666666667 0 0 0 -0.0065111111111111 -2000000 -1.862645149231e-09 -1.862645149231e-09 0 0 0 1000000 -0.0055555555555556 0.0044444444444444 0.0044444444444444 0 0 0 0.0043333333333333 0.010844444444444 0 0
1.18 -0.0172 0.010266666666667 0.010266666666667 0 0 0 -0.0073111111111111 -2000000 0 0 0 0 0 1000000 -0.0055555555555556 0.0044444444444444 0.0044444444444444 0 0 0 0.0043333333333333 0.011644444444444 0 0
1.2 -0.018 0.010666666666667 0.010666666666667 0 0 0 -0.0081111111111111 -2000000 0 0 0 0 0 1000000 -0.0055555555555556 0.0044444444444444 0.0044444444444444 0 0 0 0.0043333333333333 0.012444444444444 0 0
1.22 -0.0188 0.011066666666667 0.011066666666667 0 0 0 -0.0089111111111111 -2000000 -1.862645149231e-09 -1.862645149231e-09 0 0 0 1000000 -0.0055555555555556 0.0044444444444444 0.0044444444444444 0 0 0 0.0043333333333333 0.013244444444444 0 0
1.24 -0.0196 0.011466666666667 0.011466666666667 0 0 0 -0.0097111111111111 -2000000 0 0 0 0 0 1000000 -0.0055555555555556 0.0044444444444444 0.0044444444444444 0 0 0 0.0043333333333333 0.014044444444444 0 0
1.26 -0.0204 0.011866666666667 0.011866666666667 0 0 0 -0.010511111111111 -2000000 9.3132257461548e-10 0 0 0 0 1000000 -0.0055555555555556 0.0044444444444444 0.0044444444444444 0 0 0 0.0043333333333333 0.014844444444444 0 0
1.28 -0.0212 0.012266666666667 0.012266666666667 0 0 0 -0.011311111111111 -2000000 0 0 0 0 0 1000000 -0.0055555555555556 0.0044444444444444 0.0044444444444444 0 0 0 0.0043333333333333 0.015644444444444 0 0
1.3 -0.022 0.012666666666667 0.012666666666667 0 0 0 -0.012111111111111 -2000000 0 0 0 0 0 1000000 -0.0055555555555556 0.0044444444444444 0.0044444444444444 0 0 0 0.0043333333333333 0.016444444444444 0 0
1.32 -0.0228 0.013066666666667 0.013066666666667 0 0 0 -0.012911111111111 -2000000 0 0 0 0 0 1000000 -0.0055555555555556 0.0044444444444444 0.0044444444444444 0 0 0 0.0043333333333333 0.017244444444444 0 0
1.34 -0.0236 0.013466666666667 0.013466666666667 0 0 0 -0.013711111111111 -2000000 0 0 0 0 0 1000000 -0.0055555555555556 0.0044444444444444 0.0044444444444444 0 0 0 0.0043333333333333 0.018044444444444 0 0
1.36 -0.0244 0.013866666666667 0.013866666666667 0 0 0 -0.014511111111111 -2000000 9.3132257461548e-10 0 0 0 0 1000000 -0.0055555555555556 0.0044444444444444 0.0044444444444444 0 0 0 0.0043333333333333 0.018844444444444 0 0
1.38 -0.0252 0.014266666666667 0.014266666666667 0 0 0 -0.015311111111111 -2000000 0 0 0 0 0 1000000 -0.0055555555555556 0.0044444444444444 0.0044444444444444 0 0 0 0.0043333333333333 0.019644444444444 0 0
1.4 -0.026 0.014666666666667 0.014666666666667 0 0 0 -0.016111111111111 -2000000 0 0 0 0 0 1000000 -0.0055555555555556 0.0044444444444444 0.0044444444444444 0 0 0 0.0043333333333333 0.020444444444444 0 0
1.42 -0.0268 0.015066666666667 0.015066666666667 0 0 0 -0.016911111111111 -2000000 0 0 0 0 0 1000000 -0.0055555555555556 0.0044444444444444 0.0044444444444444 0 0 0 0.0043333333333333 0.021244444444444 0 0
1.44 -0.0276 0.015466666666667 0.015466666666667 0 0 0 -0.017711111111111 -2000000 0 0 0 0 0 1000000 -0.0055555555555556 0.0044444444444444 0.0044444444444444 0 0 0 0.0043333333333333 0.022044444444444 0 0
1.46 -0.0284 0.015866666666667 0.015866666666667 0 0 0 -0.018511111111111 -2000000 9.3132257461548e-10 0 0 0 0 1000000 -0.0055555555555556 0.0044444444444444 0.0044444444444444 0 0 0 0.0043333333333333 0.022844444444444 0 0
1.48 -0.0292 0.016266666666667 0.016266666666667 0 0 0 -0.019311111111111 -2000000 0 0 0 0 0 1000000 -0.0055555555555556 0.0044444444444444 0.0044444444444444 0 0 0 0.0043333333333333 0.023644444444444 0 0
1.5 -0.03 0.016666666666667 0.016666666666667 0 0 0 -0.020111111111111 -2000000 9.3132257461548e-10 0 0 0 0 1000000 -0.0055555555555556 0.0044444444444444 0.0044444444444444 0 0 0 0.0043333333333333 0.024444444444444 0 0
1.52 -0.0308 0.017066666666667 0.017066666666667 0 0 0 -0.020911111111111 -2000000 0 0 0 0 0 1000000 -0.0055555555555556 0.0044444444444444 0.0044444444444444 0 0 0 0.0043333333333333 0.025244444444444 0 0
1.54 -0.0316 0.017466666666667 0.017466666666667 0 0 0 -0.021711111111111 -2000000 -2.7939677238464e-09 -2.7939677238464e-09 0 0 0 1000000 -0.0055555555555556 0.0044444444444444 0.0044444444444444 0 0 0 0.0043333333333333 0.026044444444444 0 0
1.56 -0.0324 0.017866666666667 0.017866666666667 0 0 0 -0.022511111111111 -2000000 9.3132257461548e-10 9.3132257461548e-10 0 0 0 1000000 -0.0055555555555556 0.0044444444444444 0.0044444444444444 0 0 0 0.0043333333333333 0.026844444444444 0 0
1.58 -0.0332 0.018266666666667 0.018266666666667 0 0 0 -0.023311111111111 -2000000 -1.862645149231e-09 0 0 0 0 1000000 -0.0055555555555556 0.0044444444444444 0.0044444444444444 0 0 0 0.0043333333333333 0.027644444444444 0 0
1.6 -0.034 0.018666666666667 0.018666666666667 0 0 0 -0.024111111111111 -2000000 9.3132257461548e-10 0 0 0 0 1000000 -0.0055555555555556 0.0044444444444445 0.0044444444444444 0 0 0 0.0043333333333333 0.028444444444444 0 0
1.62 -0.0348 0.019066666666667 0.019066666666667 0 0 0 -0.024911111111111 -2000000 -9.3132257461548e-10 -9.3132257461548e-10 0 0 0 1000000 -0.0055555555555556 0.0044444444444444 0.0044444444444444 0 0 0 0.0043333333333333 0.029244444444444 0 0
1.64 -0.0356 0.019466666666667 0.019466666666667 0 0 0 -0.025711111111111 -2000000 1.862645149231e-09 1.862645149231e-09 0 0 0 1000000 -0.0055555555555556 0.0044444444444444 0.0044444444444444 0 0 0 0.0043333333333333 0.030044444444444 0 0
1.66 -0.0364 0.019866666666667 0.019866666666667 0 0 0 -0.026511111111111 -2000000 -1.862645149231e-09 -1.862645149231e-09 0 0 0 1000000 -0.0055555555555556 0.0044444444444444 0.0044444444444444 0 0 0 0.0043333333333333 0.030844444444444 0 0
1.68 -0.0372 0.020266666666667 0.020266666666667 0 0 0 -0.027311111111111 -2000000 1.862645149231e-09 1.862645149231e-09 0 0 0 1000000 -0.0055555555555556 0.0044444444444444 0.0044444444444444 0 0 0 0.0043333333333333 0.031644444444444 0 0
1.7 -0.038 0.020666666666667 0.020666666666667 0 0 0 -0.028111111111111 -2000000 -2.7939677238464e-09 -2.7939677238464e-09 0 0 0 1000000 -0.0055555555555556 0.0044444444444444 0.0044444444444444 0 0 0 0.0043333333333333 0.032444444444444 0 0
1.72 -0.0388 0.021066666666667 0.021066666666667 0 0 0 -0.028911111111111 -2000000 0 0 0 0 0 1000000 -0.0055555555555556 0.0044444444444444 0.0044444444444444 0 0 0 0.0043333333333333 0.033244444444444 0 0
1.74 -0.0396 0.021466666666667 0.021466666666667 0 0 0 -0.029711111111111 -2000000 -1.862645149231e-09 -1.862645149231e-09 0 0 0 1000000 -0.0055555555555556 0.0044444444444444 0.0044444444444444 0 0 0 0.0043333333333333 0.034044444444444 0 0
1.76 -0.0404 0.021866666666667 0.021866666666667 0 0 0 -0.030511111111111 -2000000 9.3132257461548e-10 9.3132257461548e-10 0 0 0 1000000 -0.0055555555555556 0.0044444444444444 0.0044444444444444 0 0 0 0.0043333333333333 0.034844444444444 0 0
1.78 -0.0412 0.022266666666667 0.022266666666667 0 0 0 -0.031311111111111 -2000000 -9.3132257461548e-10 -9.3132257461548e-10 0 0 0 1000000 -0.0055555555555556 0.0044444444444444 0.0044444444444445 0 0 0 0.0043333333333333 0.035644444444444 0 0
1.8 -0.042 0.022666666666667 0.022666666666667 0 0 0 -0.032111111111111 -2000000 1.862645149231e-09 9.3132257461548e-10 0 0 0 1000000 -0.0055555555555556 0.0044444444444444 0.0044444444444444 0 0 0 0.0043333333333333 0.036444444444444 0 0
1.82 -0.0428 0.023066666666667 0.023066666666667 0 0 0 -0.032911111111111 -2000000 1.862645149231e-09 9.3132257461548e-10 0 0 0 1000000 -0.0055555555555556 0.0044444444444444 0.0044444444444444 0 0 0 0.0043333333333333 0.037244444444444 0 0
1.84 -0.0436 0.023466666666667 0.023466666666667 0 0 0 -0.033711111111111 -2000000 1.862645149231e-09 9.3132257461548e-10 0 0 0 1000000 -0.0055555555555556 0.0044444444444444 0.0044444444444444 0 0 0 0.0043333333333333 0.038044444444444 0 0
1.86 -0.0444 0.023866666666667 0.023866666666667 0 0 0 -0.034511111111111 -2000000 -9.3132257461548e-10 -9.3132257461548e-10 0 0 0 1000000 -0.0055555555555556 0.0044444444444444 0.0044444444444444 0 0 0 0.0043333333333333 0.038844444444444 0 0
1.88 -0.0452 0.024266666666667 0.024266666666667 0 0 0 -0.035311111111111 -2000000 -9.3132257461548e-10 -9.3132257461548e-10 0 0 0 1000000 -0.0055555555555556 0.0044444444444444 0.0044444444444444 0 0 0 0.0043333333333333 0.039644444444444 0 0
1.9 -0.046 0.024666666666667 0.024666666666667 0 0 0 -0.036111111111111 -2000000 1.862645149231e-09 1.862645149231e-09 0 0 0 1000000 -0.0055555555555556 0.0044444444444444 0.0044444444444444 0 0 0 0.0043333333333333 0.040444444444444 0 0
1.92 -0.0468 0.025066666666667 0.025066666666667 0 0 0 -0.036911111111111 -2000000 0 0 0 0 0 1000000 -0.0055555555555556 0.0044444444444444 0.0044444444444444 0 0 0 0.0043333333333333 0.041244444444444 0 0
1.94 -0.0476 0.025466666666667 0.025466666666667 0 0 0 -0.037711111111111 -2000000 0 0 0 0 0 1000000 -0.0055555555555556 0.0044444444444444 0.0044444444444444 0 0 0 0.0043333333333333 0.042044444444444 0 0
1.96 -0.0484 0.025866666666667 0.025866666666667 0 0 0 -0.038511111111111 -2000000 0 0 0 0 0 1000000 -0.0055555555555556 0.0044444444444444 0.0044444444444444 0 0 0 0.0043333333333333 0.042844444444444 0 0
1.98 -0.0492 0.026266666666667 0.026266666666667 0 0 0 -0.039311111111111 -2000000 9.3132257461548e-10 9.3132257461548e-10 0 0 0 1000000 -0.0055555555555556 0.0044444444444444 0.0044444444444444 0 0 0 0.0043333333333333 0.043644444444444 0 0
2 -0.05 0.026666666666667 0.026666666666667 0 0 0 -0.040111111111111 -2000000 -9.3132257461548e-10 -9.3132257461548e-10 0 0 0 1000000 -0.0055555555555556 0.0044444444444444 0.0044444444444444 0 0 0 0.0043333333333333 0.044444444444444 0 0
